 200 84 
 52 55 14 86 80 7 48 86 62 86 81 45 
 98 67 52 10 43 26 28 75 23 95 76 23 
 35 14 21 72 62 38 45 81 47 37 83 57 
 51 81 37 10 95 39 61 44 36 51 77 1 
 84 61 24 48 78 21 84 15 75 8 55 49 
 34 45 49 73 14 27 38 48 79 64 59 61 
 33 45 22 91 65 97 85 43 93 10 18 44 
 
 11 
 4 12 20 21 25 34 35 42 52 59 76 
 49 
 1 4 5 6 7 9 11 12 13 14 17 18 
 25 26 30 33 35 39 40 42 43 44 45 46 
 48 49 51 52 53 56 57 58 59 62 63 65 
 66 67 68 72 73 74 75 78 79 80 81 82 
 84 
 55 
 3 4 6 7 8 9 10 12 13 14 15 16 
 17 18 20 22 23 26 27 29 30 31 32 33 
 35 36 37 38 39 40 43 45 46 49 50 51 
 53 57 58 61 63 64 66 67 71 72 74 77 
 78 79 80 81 82 83 84 
 71 
 1 2 4 5 7 8 9 10 11 12 13 14 
 15 18 19 20 21 22 23 24 25 26 28 29 
 30 31 32 33 35 36 37 40 41 42 43 44 
 45 47 48 50 52 53 54 55 56 57 58 60 
 61 62 63 64 65 66 68 69 70 71 72 73 
 74 75 76 77 78 79 80 81 82 83 84 
 84 
 1 2 3 4 5 6 7 8 9 10 11 12 
 13 14 15 16 17 18 19 20 21 22 23 24 
 25 26 27 28 29 30 31 32 33 34 35 36 
 37 38 39 40 41 42 43 44 45 46 47 48 
 49 50 51 52 53 54 55 56 57 58 59 60 
 61 62 63 64 65 66 67 68 69 70 71 72 
 73 74 75 76 77 78 79 80 81 82 83 84 
 47 
 1 2 6 7 8 9 10 15 16 17 18 19 
 20 23 25 26 28 30 31 36 37 39 42 44 
 46 47 49 50 51 53 55 56 57 58 59 60 
 62 63 68 69 70 75 76 77 78 82 83 
 26 
 1 6 7 13 14 15 18 19 24 40 41 44 
 45 47 50 51 53 55 61 62 65 67 74 76 
 80 84 
 12 
 5 17 27 28 35 39 40 54 61 66 74 83 
 12 
 16 17 18 19 22 28 29 38 60 71 72 76 
 81 
 1 2 3 4 5 6 7 8 9 10 11 12 
 13 14 15 16 17 18 19 20 21 22 23 24 
 25 26 27 28 29 30 31 32 33 34 35 36 
 37 38 39 40 41 42 43 44 45 46 47 49 
 50 51 52 54 55 56 57 58 59 60 61 62 
 63 64 65 66 68 69 70 71 72 73 74 75 
 76 77 78 79 80 81 82 83 84 
 84 
 1 2 3 4 5 6 7 8 9 10 11 12 
 13 14 15 16 17 18 19 20 21 22 23 24 
 25 26 27 28 29 30 31 32 33 34 35 36 
 37 38 39 40 41 42 43 44 45 46 47 48 
 49 50 51 52 53 54 55 56 57 58 59 60 
 61 62 63 64 65 66 67 68 69 70 71 72 
 73 74 75 76 77 78 79 80 81 82 83 84 
 58 
 1 2 3 4 5 6 7 8 9 10 11 12 
 13 15 17 21 25 27 29 31 34 36 37 39 
 41 42 44 46 47 48 50 51 52 53 54 55 
 56 57 58 59 60 61 64 66 67 69 70 71 
 72 74 75 76 77 78 80 82 83 84 
 58 
 1 2 3 5 6 9 10 11 13 14 17 19 
 20 21 23 24 26 29 30 32 33 35 36 37 
 38 39 40 41 45 47 48 50 51 52 54 55 
 56 57 59 60 61 62 64 67 68 69 71 72 
 73 74 77 78 79 80 81 82 83 84 
 56 
 1 2 4 5 6 9 10 11 12 16 19 20 
 21 23 24 25 26 28 29 31 32 33 34 35 
 36 37 38 40 41 43 46 47 48 49 52 53 
 54 55 57 58 60 61 62 63 64 66 67 68 
 73 77 78 80 81 82 83 84 
 65 
 3 5 6 7 8 9 10 11 13 14 15 16 
 17 18 19 21 22 23 24 25 26 27 28 29 
 30 31 32 33 34 35 36 37 38 39 40 41 
 43 44 47 48 49 50 51 52 53 54 56 57 
 58 59 60 61 62 65 67 70 72 74 76 77 
 78 80 82 83 84 
 54 
 1 2 6 7 8 10 11 14 15 16 17 19 
 20 21 22 24 25 29 30 31 32 35 36 37 
 38 40 43 44 45 46 47 48 50 51 54 55 
 56 57 60 63 64 65 68 69 70 71 72 75 
 76 77 78 81 83 84 
 46 
 6 8 9 10 11 12 15 17 18 19 20 24 
 25 26 27 28 30 32 34 36 37 38 39 40 
 43 44 45 46 47 48 53 55 58 59 60 61 
 65 66 67 68 70 72 73 76 79 81 
 46 
 1 2 3 6 8 10 12 14 16 17 18 20 
 21 23 24 25 26 27 30 32 40 41 43 44 
 46 48 51 54 57 58 60 61 63 64 66 67 
 68 71 72 74 76 78 79 80 82 84 
 42 
 2 4 6 7 8 9 11 13 15 16 17 18 
 24 27 30 32 34 36 42 44 48 49 51 52 
 54 55 59 60 63 64 66 67 68 70 71 72 
 73 74 77 80 82 84 
 19 
 1 4 8 9 15 36 38 40 50 58 59 66 
 74 75 76 78 79 82 84 
 16 
 11 15 20 21 26 27 38 49 50 54 56 60 
 65 67 71 82 
 3 
 41 42 79 
 45 
 1 3 4 5 6 7 8 9 10 12 15 20 
 22 23 25 26 27 30 31 32 33 36 39 40 
 41 42 44 48 52 53 55 56 57 58 59 61 
 62 65 67 71 74 76 78 81 83 
 28 
 2 4 6 7 8 11 12 15 18 20 26 28 
 33 34 35 36 40 41 43 49 58 59 60 62 
 65 69 71 78 
 26 
 3 5 8 11 12 14 22 25 30 33 34 35 
 38 43 46 51 52 53 54 60 68 74 79 80 
 81 82 
 27 
 1 6 7 10 13 20 22 28 31 32 33 34 
 42 43 45 47 48 49 53 59 62 71 74 75 
 76 79 80 
 50 
 1 4 5 7 11 13 14 16 21 22 23 24 
 25 26 27 29 31 33 35 36 37 38 39 41 
 42 43 44 45 47 48 49 52 53 54 56 58 
 59 61 62 66 70 71 72 73 74 75 78 79 
 83 84 
 22 
 3 6 7 8 13 15 21 23 26 31 32 37 
 43 46 53 58 65 71 75 76 77 80 
 38 
 1 4 5 6 8 17 18 20 21 22 24 27 
 28 30 31 35 37 39 41 44 45 46 48 50 
 51 52 55 58 59 61 63 64 71 72 73 80 
 82 83 
 54 
 1 2 7 9 10 11 12 13 15 16 19 20 
 23 24 25 27 28 29 31 32 36 38 40 41 
 42 43 44 45 46 47 48 49 51 52 54 55 
 56 61 63 64 65 66 67 69 70 74 76 77 
 79 80 81 82 83 84 
 56 
 1 3 4 5 6 7 9 10 13 14 16 19 
 21 22 23 24 27 29 30 31 32 33 34 35 
 39 40 43 44 45 46 47 48 49 50 51 53 
 56 57 58 59 60 61 64 65 66 67 68 70 
 71 75 77 80 81 82 83 84 
 23 
 2 3 7 10 13 19 21 23 24 26 30 35 
 45 48 51 54 61 64 65 68 72 76 82 
 10 
 2 12 15 23 39 51 52 61 71 82 
 68 
 1 2 4 5 6 7 9 10 12 13 14 15 
 16 18 20 21 22 23 25 27 28 29 30 31 
 33 34 35 37 38 39 40 41 44 45 46 47 
 49 50 51 52 53 54 55 56 57 59 60 62 
 64 65 66 67 68 69 70 71 72 73 74 75 
 76 77 78 79 80 82 83 84 
 69 
 1 2 3 5 6 7 8 12 13 15 16 17 
 18 20 21 22 25 26 27 28 29 30 31 34 
 35 36 37 38 39 40 42 43 44 45 46 47 
 48 49 51 52 53 54 55 56 58 59 60 61 
 62 63 64 65 66 67 68 69 70 71 72 73 
 74 75 77 78 80 81 82 83 84 
 49 
 1 2 3 4 6 7 8 9 16 18 19 20 
 22 23 24 25 26 27 28 29 31 33 34 35 
 36 37 38 40 41 42 43 50 55 56 58 59 
 61 62 65 66 68 70 72 73 74 78 80 81 
 82 
 21 
 3 5 8 16 22 27 29 38 47 54 60 62 
 63 64 66 71 72 73 74 78 84 
 15 
 6 7 17 23 31 37 41 43 44 49 53 54 
 74 75 82 
 68 
 1 2 3 5 6 7 8 9 10 11 12 13 
 15 16 17 18 20 23 24 25 28 29 31 32 
 33 34 35 36 37 38 39 40 43 44 45 46 
 48 49 50 51 52 54 55 56 57 58 59 60 
 61 63 64 65 66 68 69 70 71 72 73 74 
 76 78 79 80 81 82 83 84 
 27 
 3 5 6 20 22 27 33 39 44 45 47 49 
 51 52 56 57 58 59 62 67 68 71 72 78 
 80 81 82 
 36 
 1 2 5 6 7 11 14 15 16 18 21 22 
 23 24 28 29 31 41 43 44 46 47 50 51 
 53 54 55 58 63 67 69 73 77 82 83 84 
 5 
 26 27 31 75 80 
 10 
 12 18 37 40 43 44 59 60 65 70 
 5 
 7 14 38 53 84 
 16 
 9 11 16 29 32 35 36 39 43 45 46 52 
 60 65 83 84 
 52 
 3 5 6 11 12 15 17 18 21 22 23 24 
 25 27 28 29 30 33 34 35 37 38 40 41 
 42 43 44 45 46 47 49 50 51 52 53 54 
 55 56 62 64 67 68 69 70 71 74 77 78 
 79 80 82 84 
 39 
 2 3 5 8 9 10 12 13 15 17 19 21 
 27 29 31 32 34 35 37 40 43 46 47 48 
 49 52 55 57 58 60 62 63 64 65 68 70 
 78 81 82 
 31 
 3 4 9 10 12 13 14 15 18 20 21 22 
 27 28 30 33 38 49 52 55 58 59 61 63 
 64 69 76 78 81 82 83 
 39 
 2 3 4 6 14 19 22 23 25 27 29 34 
 36 37 40 41 43 44 47 48 53 55 57 58 
 65 67 68 69 70 71 72 73 74 75 76 78 
 79 80 82 
 62 
 1 2 3 6 7 8 9 10 11 12 13 14 
 15 18 19 20 22 25 26 27 28 29 32 33 
 34 37 38 42 44 45 46 47 48 50 52 53 
 54 55 56 57 58 59 60 61 62 63 64 68 
 69 70 71 73 74 75 76 77 79 80 81 82 
 83 84 
 72 
 1 2 3 4 5 6 7 8 10 12 13 14 
 15 16 17 18 19 21 22 23 24 26 27 28 
 31 32 33 34 35 36 37 39 40 41 42 43 
 44 45 46 47 48 49 50 52 53 54 56 57 
 58 59 60 61 62 63 64 65 66 67 68 71 
 72 73 74 75 76 77 78 79 80 81 83 84 
 75 
 2 3 4 5 6 7 8 9 10 11 12 13 
 14 15 16 19 20 21 22 23 24 25 26 27 
 28 29 30 31 32 33 35 36 37 38 39 40 
 41 42 43 44 45 46 47 48 49 50 51 52 
 53 54 55 57 58 59 60 61 62 63 65 67 
 68 69 71 72 73 74 75 76 77 78 79 81 
 82 83 84 
 18 
 1 4 5 6 10 14 15 18 21 23 25 28 
 31 32 49 65 70 79 
 26 
 6 7 12 15 18 21 22 25 27 28 29 31 
 32 38 44 46 49 51 56 57 60 66 70 72 
 78 84 
 8 
 2 8 14 20 23 67 69 76 
 41 
 1 3 6 8 10 13 15 16 20 22 23 29 
 30 31 32 33 35 37 39 40 41 44 45 47 
 50 52 53 54 55 57 61 63 65 66 67 72 
 74 76 82 83 84 
 27 
 2 4 5 11 12 14 18 24 26 31 34 42 
 43 44 47 49 50 52 53 54 65 66 69 73 
 76 77 79 
 31 
 1 2 4 5 7 11 15 16 19 20 24 27 
 28 30 31 40 43 46 48 51 53 56 60 71 
 75 76 77 78 79 80 83 
 69 
 2 4 5 6 7 8 9 10 11 12 13 14 
 15 16 17 18 19 20 21 22 24 25 27 28 
 29 31 32 33 34 35 38 39 40 41 42 43 
 44 45 46 47 49 51 52 53 55 56 57 58 
 60 61 62 65 66 67 69 70 71 72 73 74 
 75 76 77 78 79 80 82 83 84 
 15 
 1 2 4 24 28 50 55 57 61 63 64 68 
 71 75 78 
 5 
 1 19 35 48 52 
 57 
 1 2 4 6 7 8 11 12 15 17 18 20 
 21 22 23 24 27 30 31 33 34 35 36 37 
 38 40 41 43 44 45 48 49 51 54 58 59 
 61 62 63 64 65 66 67 68 69 71 72 73 
 74 75 76 77 78 80 81 83 84 
 32 
 1 2 5 7 8 12 14 16 17 28 30 31 
 32 36 38 43 47 50 52 53 56 59 65 68 
 70 72 74 75 76 81 83 84 
 29 
 3 5 7 10 11 15 16 21 22 26 27 29 
 30 32 33 34 36 38 40 45 48 53 54 62 
 75 78 80 81 84 
 46 
 3 4 6 9 10 11 12 13 14 15 17 19 
 20 22 24 26 27 32 35 36 40 41 42 45 
 46 48 49 50 51 52 55 56 57 58 60 61 
 64 66 67 68 70 77 78 79 80 81 
 59 
 1 4 5 6 7 8 9 11 14 16 20 21 
 22 23 26 27 30 31 33 34 35 36 39 41 
 42 43 44 45 46 47 49 50 51 52 53 54 
 55 57 58 59 60 63 64 65 66 67 70 71 
 72 73 74 75 77 79 80 81 82 83 84 
 63 
 1 4 5 7 8 9 10 12 13 14 15 16 
 17 18 19 20 21 22 23 24 26 27 28 29 
 30 32 33 36 39 40 41 42 43 45 46 48 
 49 50 51 52 53 55 56 57 58 59 62 63 
 64 65 66 68 69 70 71 72 73 75 77 78 
 79 81 82 
 73 
 1 2 3 4 5 6 8 9 10 11 12 13 
 14 15 16 17 19 20 21 22 23 24 25 27 
 28 29 30 31 33 34 37 38 39 40 41 42 
 44 45 46 48 49 51 52 53 54 55 56 57 
 58 59 60 61 64 65 66 67 68 69 70 71 
 72 73 74 75 76 77 78 79 80 81 82 83 
 84 
 19 
 3 19 20 22 24 32 33 34 35 40 50 52 
 56 65 71 73 74 75 77 
 82 
 1 2 3 4 5 6 7 8 10 11 12 13 
 14 15 16 17 18 19 20 21 22 23 24 25 
 26 27 28 29 30 31 32 33 34 35 36 37 
 38 39 40 41 42 43 44 45 46 47 48 49 
 50 51 52 53 54 55 57 58 59 60 61 62 
 63 64 65 66 67 68 69 70 71 72 73 74 
 75 76 77 78 79 80 81 82 83 84 
 12 
 5 14 18 20 21 39 57 64 65 78 81 82 
 43 
 1 2 3 5 6 7 8 12 13 14 16 20 
 21 24 29 31 32 33 34 35 38 39 44 45 
 47 49 51 52 55 56 57 58 59 61 65 67 
 70 71 74 76 77 80 83 
 22 
 4 6 7 8 10 11 15 19 20 31 32 34 
 35 39 42 45 49 61 68 76 79 83 
 7 
 3 9 17 34 36 65 74 
 57 
 2 3 4 5 6 9 10 13 15 16 18 19 
 23 25 27 28 29 31 32 33 34 35 36 37 
 38 40 41 42 44 45 46 48 49 52 54 55 
 57 58 59 60 61 62 63 66 67 68 69 70 
 71 72 73 75 76 78 80 81 84 
 8 
 3 4 13 28 31 44 50 61 
 56 
 1 2 5 10 11 12 13 14 15 16 17 18 
 19 20 22 24 25 26 27 28 29 32 33 34 
 35 36 37 38 39 40 41 44 45 46 47 48 
 51 52 53 54 55 57 60 66 67 68 70 71 
 75 76 78 79 80 81 82 83 
 35 
 1 2 3 7 8 13 15 16 18 19 21 22 
 23 27 28 32 34 36 38 42 50 62 64 66 
 69 72 73 74 76 77 78 80 81 82 83 
 74 
 1 2 3 4 5 6 7 8 9 10 11 12 
 13 15 17 18 19 20 21 22 23 24 26 27 
 28 29 31 32 33 34 35 36 37 38 39 40 
 41 42 43 44 45 46 47 48 49 50 51 52 
 53 55 56 58 59 60 61 62 65 66 67 68 
 69 70 71 72 73 74 75 76 77 78 79 81 
 82 83 
 28 
 2 7 18 20 22 23 24 25 27 28 36 37 
 39 42 43 44 47 48 50 51 52 58 61 71 
 72 73 74 75 
 34 
 2 4 5 8 9 10 15 17 18 19 25 30 
 34 35 39 40 41 43 44 48 50 52 53 56 
 59 61 65 68 71 72 79 81 82 84 
 79 
 1 2 3 4 5 6 8 9 11 12 13 14 
 15 16 17 18 19 20 21 22 23 24 25 26 
 27 28 29 30 31 32 33 34 35 36 37 38 
 39 40 41 43 44 45 46 47 48 49 50 52 
 53 54 55 56 57 58 59 60 61 62 63 64 
 65 66 67 68 69 70 71 72 73 74 75 76 
 77 78 79 80 82 83 84 
 5 
 11 32 38 64 81 
 76 
 1 3 4 5 7 8 9 10 11 12 13 14 
 15 16 17 18 19 20 21 22 23 24 25 26 
 27 28 29 30 31 32 33 34 35 36 37 38 
 39 41 43 44 45 46 47 49 50 51 52 53 
 54 55 57 58 60 61 62 63 64 65 66 67 
 68 69 70 71 72 73 74 75 76 77 78 79 
 80 81 82 84 
 56 
 1 2 3 4 6 7 8 9 10 11 13 14 
 17 18 20 22 23 26 27 28 29 30 31 32 
 33 34 36 37 38 39 40 42 43 45 46 47 
 49 50 51 52 53 57 61 62 63 65 69 71 
 75 76 78 79 80 81 82 83 
 75 
 2 3 4 5 6 7 8 9 10 11 12 14 
 15 16 17 19 20 21 22 23 24 25 26 27 
 28 29 30 31 32 33 34 35 36 37 38 40 
 41 43 45 46 47 48 49 50 51 52 53 54 
 55 56 57 58 59 60 61 62 64 65 66 68 
 69 70 71 72 73 74 75 76 77 78 79 80 
 82 83 84 
 80 
 1 2 4 5 6 7 8 9 10 12 13 14 
 15 16 17 18 19 20 21 22 23 24 25 26 
 27 28 29 30 31 32 33 34 35 36 37 38 
 39 40 41 42 43 44 45 46 47 49 50 51 
 52 53 54 55 56 57 58 59 60 61 62 63 
 64 65 66 67 68 70 71 72 73 74 75 76 
 77 78 79 80 81 82 83 84 
 17 
 1 8 18 30 31 35 36 42 45 52 56 63 
 64 68 76 78 79 
 50 
 1 2 4 5 7 8 9 11 13 14 16 17 
 19 20 21 22 23 24 25 28 29 31 32 33 
 37 38 39 40 41 43 45 46 47 52 53 54 
 55 57 61 65 68 69 70 71 72 74 76 78 
 81 83 
 45 
 1 2 4 5 6 7 8 9 10 11 12 13 
 14 15 17 19 20 21 22 27 28 30 33 35 
 36 38 41 42 45 46 47 53 56 59 61 62 
 63 64 65 68 69 72 73 79 80 
 32 
 9 10 11 13 20 22 27 32 34 35 38 39 
 42 43 44 48 54 56 57 58 59 63 64 66 
 71 72 73 74 78 82 83 84 
 30 
 5 6 9 15 19 20 22 28 29 30 31 33 
 39 43 48 50 52 55 56 57 61 62 63 64 
 70 75 76 77 82 83 
 49 
 1 2 8 10 11 12 13 15 16 17 18 20 
 21 25 26 29 30 33 34 36 37 38 39 40 
 41 44 45 46 48 50 53 54 55 56 57 60 
 61 64 66 67 68 71 73 75 76 77 78 80 
 81 
 65 
 1 3 4 5 6 7 8 9 10 11 12 13 
 14 15 16 17 18 20 21 23 25 26 27 28 
 29 30 31 34 35 36 37 39 40 41 42 43 
 44 45 46 47 49 50 52 53 55 58 59 61 
 62 64 65 66 69 70 71 72 73 74 77 78 
 79 80 81 82 83 
 38 
 1 4 5 14 15 16 20 21 24 25 27 30 
 31 32 33 35 42 43 44 48 49 53 56 57 
 58 61 62 64 67 69 75 76 77 78 79 81 
 82 83 
 44 
 1 3 4 6 7 9 10 15 17 18 20 21 
 24 26 27 30 31 33 34 35 36 37 38 39 
 42 43 44 45 46 47 50 53 57 60 63 66 
 68 69 71 72 77 78 79 84 
 63 
 2 3 4 5 6 7 9 10 12 13 14 15 
 17 18 22 24 26 27 28 30 31 32 33 34 
 36 37 39 40 41 42 44 45 46 47 48 49 
 50 52 54 55 56 57 58 59 60 62 63 65 
 66 67 70 72 73 74 75 76 77 79 80 81 
 82 83 84 
 14 
 14 27 37 38 42 44 49 51 52 58 59 65 
 73 76 
 10 
 5 6 9 16 19 27 37 48 49 61 
 33 
 7 9 10 11 12 13 19 20 23 26 28 30 
 31 32 33 36 38 39 40 44 45 51 52 57 
 58 61 63 64 69 76 80 82 84 
 44 
 1 2 4 6 7 8 9 10 13 15 16 18 
 20 21 23 24 26 27 29 30 34 37 38 41 
 42 44 45 52 56 59 60 62 63 64 66 67 
 70 71 74 76 78 81 82 83 
 45 
 1 2 9 10 11 12 13 19 21 23 24 25 
 26 30 31 32 33 34 35 37 40 41 43 45 
 46 47 48 51 52 53 55 58 59 60 61 62 
 66 67 70 72 73 75 79 82 84 
 47 
 1 4 6 8 11 13 14 15 16 17 18 19 
 22 23 25 27 28 30 31 33 36 38 39 41 
 42 44 45 46 47 54 56 57 59 60 61 64 
 68 69 70 72 75 76 77 79 80 81 83 
 79 
 1 2 3 4 5 6 7 8 9 10 11 12 
 13 14 15 16 17 18 19 20 22 23 24 25 
 26 27 28 29 30 31 32 33 34 35 36 37 
 38 39 40 42 43 44 45 46 47 48 49 50 
 51 52 53 54 57 58 60 61 62 63 64 65 
 66 67 68 69 70 71 72 73 74 75 76 77 
 78 79 80 81 82 83 84 
 78 
 2 3 4 6 7 8 9 10 11 12 13 14 
 15 16 17 18 19 20 21 22 23 24 25 26 
 27 28 29 30 31 33 34 35 36 37 38 39 
 40 41 42 43 44 46 47 48 49 50 51 52 
 53 54 55 56 57 58 59 61 62 63 64 65 
 67 68 69 70 71 72 73 74 75 76 77 78 
 79 80 81 82 83 84 
 50 
 2 3 6 8 9 14 15 17 18 20 21 22 
 23 25 27 29 30 34 35 38 39 40 41 42 
 45 46 48 49 51 52 53 54 55 56 57 59 
 60 61 63 66 69 70 71 72 73 75 76 77 
 78 79 
 59 
 2 4 5 7 8 9 11 13 14 15 17 18 
 22 24 25 26 27 28 29 30 31 32 35 38 
 39 42 44 45 47 48 49 50 51 52 53 54 
 56 57 58 59 60 61 62 63 64 65 66 67 
 68 70 71 73 74 75 77 78 79 80 83 
 47 
 1 2 3 4 5 6 7 10 11 13 17 18 
 23 25 26 27 28 29 30 31 34 35 36 39 
 41 43 44 47 50 52 53 55 58 59 64 65 
 66 67 69 70 72 73 74 76 78 82 83 
 70 
 1 2 3 4 5 7 8 9 10 11 13 14 
 15 16 17 18 20 21 22 23 24 25 26 27 
 29 31 32 33 34 35 36 37 38 39 42 44 
 46 47 49 51 52 53 54 55 56 57 58 59 
 60 61 62 63 64 66 67 68 69 70 72 73 
 74 75 77 78 79 80 81 82 83 84 
 67 
 1 2 3 4 5 6 7 8 9 10 12 14 
 15 16 17 18 19 20 21 22 23 24 25 26 
 27 30 31 33 34 35 36 38 39 40 41 42 
 43 44 46 49 51 52 53 54 55 56 57 58 
 59 60 62 63 64 65 66 69 70 72 73 77 
 78 79 80 81 82 83 84 
 8 
 16 17 38 42 56 67 81 84 
 44 
 2 4 6 8 10 11 12 13 14 16 20 21 
 23 24 25 26 27 29 32 34 41 45 46 47 
 49 51 52 54 56 57 59 60 61 63 64 66 
 68 71 72 74 78 80 81 84 
 10 
 7 23 28 29 30 31 33 45 50 52 
 58 
 1 3 5 6 7 10 11 13 14 15 17 18 
 19 21 22 23 25 26 29 30 31 32 34 35 
 36 37 38 39 40 41 42 43 44 46 47 49 
 51 52 53 57 58 61 62 64 65 66 68 69 
 71 73 74 75 76 77 78 80 82 84 
 8 
 6 12 14 25 46 52 69 70 
 22 
 5 9 17 21 27 36 41 47 54 58 59 62 
 63 65 66 68 69 75 76 79 81 83 
 26 
 1 2 3 10 11 12 14 22 23 29 31 32 
 34 41 47 51 52 53 54 57 63 66 70 74 
 77 80 
 7 
 11 16 26 38 40 77 78 
 66 
 3 5 6 7 8 9 11 12 13 14 15 16 
 17 18 19 20 21 22 23 24 25 26 27 29 
 30 32 33 34 35 36 37 38 39 40 41 42 
 43 45 46 48 51 52 53 54 58 59 61 62 
 63 64 66 68 69 71 72 73 74 75 76 78 
 79 80 81 82 83 84 
 18 
 1 3 7 12 17 18 26 29 30 39 50 51 
 52 57 69 71 74 82 
 53 
 1 2 3 4 5 6 8 9 10 12 15 17 
 19 20 22 23 26 29 31 33 34 36 37 39 
 41 43 45 47 49 50 52 53 55 56 57 58 
 60 61 63 66 67 69 70 71 72 75 77 78 
 79 80 81 83 84 
 14 
 2 8 11 12 17 19 22 37 38 39 48 50 
 60 83 
 54 
 1 4 5 6 9 10 11 13 17 19 20 22 
 23 24 25 26 27 28 29 30 31 32 33 34 
 36 37 38 39 40 41 42 46 48 49 50 51 
 52 54 56 57 61 64 65 66 67 71 72 73 
 74 76 79 80 81 84 
 52 
 2 4 5 6 7 8 9 11 13 14 16 17 
 19 20 23 24 25 26 28 29 31 33 34 36 
 39 40 43 44 45 46 49 50 51 52 53 55 
 59 60 62 64 66 68 69 70 71 72 73 74 
 76 77 79 82 
 20 
 7 13 17 20 23 27 32 36 37 40 45 48 
 51 53 61 62 68 71 75 77 
 84 
 1 2 3 4 5 6 7 8 9 10 11 12 
 13 14 15 16 17 18 19 20 21 22 23 24 
 25 26 27 28 29 30 31 32 33 34 35 36 
 37 38 39 40 41 42 43 44 45 46 47 48 
 49 50 51 52 53 54 55 56 57 58 59 60 
 61 62 63 64 65 66 67 68 69 70 71 72 
 73 74 75 76 77 78 79 80 81 82 83 84 
 78 
 1 2 3 4 5 6 7 8 9 10 11 12 
 13 14 15 16 17 18 19 21 22 23 24 26 
 27 28 29 30 31 32 33 34 35 36 37 38 
 39 40 41 42 43 44 45 46 47 48 49 50 
 51 52 54 55 56 57 59 60 62 63 64 65 
 66 67 68 69 70 71 72 73 74 76 77 78 
 79 80 81 82 83 84 
 71 
 1 2 3 4 5 6 7 8 9 10 11 12 
 14 15 16 17 18 19 20 22 24 25 26 28 
 29 30 32 33 34 35 36 37 38 39 41 42 
 43 44 45 47 48 49 50 51 52 53 54 55 
 56 58 59 60 62 63 64 66 68 69 70 71 
 72 73 74 75 76 77 79 80 81 82 83 
 50 
 1 5 8 9 11 13 15 17 18 20 21 23 
 25 26 27 28 30 31 33 36 37 38 40 41 
 42 43 44 45 46 48 49 50 51 52 58 61 
 62 65 66 67 69 71 72 73 75 76 77 81 
 83 84 
 55 
 1 2 3 6 7 8 9 11 13 15 18 19 
 20 23 24 26 28 31 34 36 37 38 39 40 
 41 43 44 47 49 52 53 55 56 57 59 60 
 61 62 63 64 65 68 69 70 71 73 74 75 
 77 78 79 80 81 82 83 
 74 
 1 2 3 4 5 6 7 8 9 10 11 12 
 13 14 15 16 17 20 21 22 24 25 27 28 
 29 30 31 32 33 34 35 36 37 38 39 40 
 41 42 43 44 45 46 47 48 49 51 52 53 
 54 55 56 57 58 60 62 63 65 66 67 68 
 69 70 71 72 73 74 75 77 78 79 81 82 
 83 84 
 12 
 3 6 15 31 38 45 53 59 73 75 79 82 
 80 
 1 2 3 4 5 6 7 8 9 10 11 12 
 13 14 15 16 17 18 19 20 21 22 23 24 
 25 26 27 28 29 30 31 32 33 34 35 36 
 37 38 39 40 41 42 43 44 45 46 48 49 
 50 51 53 54 55 56 57 58 60 61 62 63 
 64 65 66 67 68 69 70 71 72 73 74 75 
 76 78 79 80 81 82 83 84 
 30 
 4 6 8 9 14 16 19 20 22 29 30 34 
 37 39 43 45 47 48 49 50 51 53 54 58 
 64 65 67 77 79 81 
 18 
 2 4 8 9 17 22 25 34 36 46 52 53 
 56 64 65 73 75 82 
 12 
 8 14 18 24 25 28 49 56 59 61 64 66 
 11 
 24 31 39 42 45 55 57 58 66 76 79 
 13 
 5 18 28 30 32 49 52 55 56 59 73 82 
 84 
 35 
 4 8 10 12 18 19 23 25 26 27 28 30 
 31 32 34 38 43 44 45 50 51 53 56 60 
 61 62 63 64 65 66 71 73 74 77 81 
 17 
 5 12 17 20 26 30 34 40 44 56 57 59 
 60 63 69 70 73 
 4 
 27 46 47 64 
 16 
 2 8 15 16 21 28 35 48 49 52 54 58 
 64 74 75 77 
 25 
 2 7 12 15 18 24 26 28 35 36 37 43 
 44 48 53 63 66 68 70 75 76 78 79 81 
 84 
 52 
 3 4 6 10 13 14 15 16 17 19 20 22 
 23 24 26 28 29 30 31 34 35 36 37 38 
 39 41 43 44 47 48 51 52 53 54 55 57 
 58 60 61 62 63 65 67 70 71 75 77 78 
 79 80 81 82 
 77 
 1 2 3 4 5 6 7 8 9 10 11 12 
 13 14 15 16 17 19 20 21 22 23 25 26 
 27 28 30 31 33 34 35 36 37 38 39 40 
 41 42 43 44 45 46 47 48 49 50 51 52 
 54 56 57 58 59 60 61 62 63 64 65 66 
 67 68 69 70 71 72 73 74 75 76 77 78 
 79 80 81 83 84 
 13 
 4 5 29 31 37 41 46 61 62 66 71 80 
 83 
 51 
 1 2 3 4 5 6 7 8 11 13 15 16 
 17 18 20 24 25 26 27 28 29 30 32 34 
 35 36 38 42 43 47 51 53 55 58 61 62 
 63 64 66 68 69 73 75 76 77 78 79 80 
 81 82 83 
 10 
 12 14 30 33 34 41 42 56 71 81 
 71 
 1 2 3 4 5 6 7 8 9 10 11 12 
 13 14 15 16 18 19 21 22 23 24 25 27 
 28 29 30 32 33 34 36 37 38 41 42 43 
 44 45 47 48 49 50 51 52 53 54 55 56 
 58 59 60 61 62 64 65 66 67 68 69 70 
 72 73 74 76 78 79 80 81 82 83 84 
 24 
 3 6 13 14 17 22 28 33 38 40 41 44 
 45 52 54 56 61 64 65 66 67 75 77 81 
 17 
 1 9 10 18 19 23 24 29 36 39 53 58 
 75 77 79 82 83 
 58 
 1 2 4 7 8 9 10 11 12 13 14 15 
 20 21 22 24 25 26 28 30 31 32 34 35 
 36 37 39 40 45 46 47 48 49 54 55 56 
 59 60 61 62 63 66 67 68 69 70 71 72 
 73 74 75 77 78 79 80 81 83 84 
 3 
 36 64 71 
 49 
 2 6 7 9 12 13 14 15 16 17 18 21 
 22 24 25 26 28 31 34 35 36 37 39 40 
 43 44 45 47 48 49 51 58 59 60 61 62 
 66 69 71 72 73 74 76 78 80 81 82 83 
 84 
 6 
 10 35 43 48 74 78 
 43 
 2 4 5 8 9 10 12 14 17 19 22 27 
 28 29 30 32 33 36 38 41 42 45 46 48 
 50 52 53 54 55 57 59 60 62 63 68 69 
 70 72 76 79 81 83 84 
 67 
 1 2 3 4 5 6 7 8 9 13 14 15 
 16 18 19 20 21 23 24 25 26 27 28 30 
 31 32 33 34 35 36 38 39 41 42 43 44 
 46 47 48 49 50 53 54 55 56 57 58 59 
 61 63 64 65 66 67 70 71 74 75 76 77 
 78 79 80 81 82 83 84 
 6 
 4 15 17 29 53 54 
 21 
 2 4 6 8 11 15 25 29 47 50 55 59 
 60 62 63 68 70 71 73 78 84 
 56 
 1 2 3 4 5 7 9 11 16 17 18 19 
 20 22 23 24 25 28 29 31 32 34 35 36 
 37 38 39 40 41 43 44 46 48 50 51 52 
 53 55 56 58 60 61 66 67 68 69 71 72 
 73 74 76 77 78 79 81 82 
 75 
 1 2 3 4 5 7 9 10 11 12 13 14 
 15 16 17 20 21 22 23 24 25 26 27 28 
 29 30 31 32 33 34 35 36 37 38 39 40 
 41 42 43 44 46 47 48 49 50 51 52 53 
 54 55 56 58 59 60 61 62 63 64 65 66 
 67 69 70 71 72 73 74 75 77 78 79 81 
 82 83 84 
 84 
 1 2 3 4 5 6 7 8 9 10 11 12 
 13 14 15 16 17 18 19 20 21 22 23 24 
 25 26 27 28 29 30 31 32 33 34 35 36 
 37 38 39 40 41 42 43 44 45 46 47 48 
 49 50 51 52 53 54 55 56 57 58 59 60 
 61 62 63 64 65 66 67 68 69 70 71 72 
 73 74 75 76 77 78 79 80 81 82 83 84 
 27 
 7 8 9 18 21 22 23 24 29 34 38 40 
 44 47 57 58 60 61 71 74 78 79 80 81 
 82 83 84 
 45 
 1 2 3 5 7 12 13 14 16 18 22 23 
 24 25 26 28 29 32 34 35 37 38 39 43 
 44 47 48 49 50 52 58 60 62 64 65 68 
 69 70 72 73 77 78 81 82 84 
 56 
 1 2 3 5 6 7 8 10 12 13 14 15 
 16 18 19 20 21 22 23 25 27 29 31 33 
 36 37 40 42 45 46 47 48 50 51 52 53 
 55 56 57 59 60 63 64 66 68 69 71 74 
 76 77 78 80 81 82 83 84 
 38 
 1 6 9 10 14 15 19 21 24 28 30 31 
 33 34 35 38 39 43 44 45 46 47 49 51 
 52 53 62 63 64 68 70 73 75 76 80 81 
 82 84 
 45 
 1 2 7 8 9 10 12 13 15 18 19 20 
 24 25 29 30 31 33 34 37 41 42 43 45 
 46 47 48 49 51 54 56 57 58 64 71 72 
 73 75 76 78 79 80 81 82 84 
 4 
 1 10 18 27 
 66 
 1 3 4 5 6 8 10 11 12 15 17 18 
 19 20 21 22 23 24 25 29 30 31 32 33 
 34 37 38 39 40 41 42 43 44 45 46 47 
 48 49 51 52 53 54 55 56 57 59 60 61 
 62 63 64 65 66 68 70 71 73 74 76 77 
 79 80 81 82 83 84 
 58 
 1 3 5 6 7 9 10 12 14 15 17 18 
 19 20 21 25 29 30 33 35 36 37 38 39 
 42 43 46 48 49 50 51 52 53 55 57 58 
 60 61 62 63 64 65 66 68 69 70 71 74 
 75 76 77 78 79 80 81 82 83 84 
 44 
 3 5 7 10 11 12 14 16 17 18 19 21 
 22 24 28 29 30 32 35 36 38 43 44 46 
 47 48 49 52 55 56 57 59 60 63 65 69 
 71 72 76 77 79 80 83 84 
 50 
 1 2 3 4 5 6 11 12 14 15 16 21 
 22 23 27 31 33 34 37 38 39 40 41 42 
 44 47 48 51 52 55 56 57 58 60 61 62 
 65 66 67 68 70 71 72 73 77 78 79 80 
 81 84 
 2 
 26 71 
 35 
 2 3 6 7 11 12 14 16 21 24 26 27 
 29 30 34 38 39 43 44 48 56 60 61 62 
 64 68 69 70 72 74 75 76 80 82 84 
 71 
 1 2 3 4 5 6 7 8 9 10 11 12 
 13 14 18 19 20 22 23 24 25 26 27 29 
 31 32 33 35 36 37 38 40 41 42 44 46 
 47 48 50 51 52 53 54 55 56 57 58 59 
 60 61 62 63 64 65 67 68 69 70 71 72 
 73 74 75 76 77 78 79 81 82 83 84 
 21 
 6 18 19 20 21 23 28 31 35 36 40 43 
 51 55 57 60 63 65 71 72 74 
 50 
 1 5 6 8 9 10 11 12 13 16 18 21 
 23 25 26 27 29 30 32 34 36 37 40 41 
 42 47 48 49 50 51 52 53 56 57 59 60 
 62 63 64 66 67 68 71 74 75 76 79 80 
 82 84 
 48 
 4 5 9 10 12 13 15 19 20 24 25 26 
 27 28 29 31 34 35 39 40 41 42 43 46 
 47 48 51 53 54 57 58 61 66 67 68 69 
 70 71 72 73 75 76 77 78 79 80 83 84 
 13 
 1 6 15 18 23 31 33 34 44 61 76 77 
 78 
 18 
 8 11 22 23 27 28 41 43 44 45 46 52 
 57 62 68 69 71 72 
 26 
 1 3 5 6 9 13 19 27 29 30 39 41 
 42 46 50 52 58 61 63 64 68 69 73 76 
 82 83 
 72 
 1 2 3 4 5 6 7 8 9 10 11 12 
 13 14 15 16 17 19 21 22 23 25 26 27 
 28 29 31 32 33 34 35 36 37 39 42 43 
 44 45 46 47 48 49 50 52 53 55 57 58 
 59 60 61 63 64 65 66 67 68 69 70 72 
 73 74 75 76 77 78 79 80 81 82 83 84 
 64 
 2 4 5 6 7 8 9 10 11 12 13 15 
 16 17 19 21 23 24 25 26 28 29 30 32 
 33 34 35 36 38 39 40 41 42 43 46 47 
 49 51 53 54 55 56 57 58 61 62 63 64 
 65 66 67 68 69 70 71 72 73 74 75 77 
 78 79 80 84 
 31 
 4 8 10 16 18 19 20 21 28 30 31 32 
 34 37 38 40 41 44 45 51 52 54 55 57 
 69 72 74 77 79 83 84 
 12 
 15 18 32 35 43 47 50 65 70 78 79 83 
 54 
 1 3 4 7 10 12 14 15 16 17 21 22 
 23 24 25 26 27 28 35 36 37 41 42 43 
 44 45 46 48 50 51 52 53 54 55 56 58 
 59 61 62 63 65 66 67 68 70 72 73 75 
 76 80 81 82 83 84 
 27 
 2 7 8 9 12 13 24 25 26 28 30 34 
 37 40 42 43 44 51 52 58 60 61 62 63 
 80 81 82 
 84 
 1 2 3 4 5 6 7 8 9 10 11 12 
 13 14 15 16 17 18 19 20 21 22 23 24 
 25 26 27 28 29 30 31 32 33 34 35 36 
 37 38 39 40 41 42 43 44 45 46 47 48 
 49 50 51 52 53 54 55 56 57 58 59 60 
 61 62 63 64 65 66 67 68 69 70 71 72 
 73 74 75 76 77 78 79 80 81 82 83 84 
 34 
 1 6 7 8 14 15 16 18 19 21 22 26 
 28 30 31 34 40 41 44 45 46 51 54 55 
 60 62 63 65 68 71 78 79 81 84 
 62 
 1 2 3 4 5 6 7 8 9 10 11 12 
 15 16 18 19 20 22 23 24 25 26 30 31 
 32 33 34 35 38 39 40 41 42 43 45 47 
 48 49 52 53 54 56 57 58 60 64 65 66 
 67 68 69 70 71 72 73 74 75 76 78 80 
 82 84 
 76 
 1 2 3 4 5 6 7 8 9 10 11 12 
 13 14 15 16 17 18 19 20 21 22 23 24 
 25 27 28 29 30 31 32 33 34 35 36 37 
 38 39 40 41 42 43 44 45 46 47 48 50 
 51 52 53 54 56 57 58 59 60 61 63 64 
 68 70 71 72 73 74 75 76 77 78 79 80 
 81 82 83 84 
 43 
 1 2 6 10 11 12 16 19 20 21 23 24 
 26 28 29 30 31 32 33 34 35 36 38 44 
 45 53 54 56 59 62 64 65 66 68 69 70 
 73 74 76 77 78 80 83 
 27 
 2 3 5 12 13 20 26 29 30 32 34 36 
 41 43 44 45 48 55 58 64 67 71 74 77 
 78 81 83 
 83 
 1 2 3 4 5 6 7 8 9 10 11 12 
 13 14 15 16 17 18 19 20 21 22 23 24 
 25 26 27 28 29 30 31 32 33 34 35 36 
 37 38 39 40 41 42 43 44 45 46 47 48 
 49 50 51 52 53 54 55 56 57 58 59 60 
 62 63 64 65 66 67 68 69 70 71 72 73 
 74 75 76 77 78 79 80 81 82 83 84 
 59 
 1 2 4 5 6 7 8 9 10 11 13 14 
 16 18 19 21 22 23 24 25 26 27 28 29 
 32 36 37 38 40 41 42 43 44 45 46 48 
 50 51 53 54 55 56 59 60 61 65 66 68 
 69 70 71 72 75 77 78 79 81 82 84 
 49 
 1 2 4 9 10 11 12 13 18 19 24 25 
 26 28 31 32 34 37 38 39 46 47 48 50 
 51 52 54 55 57 58 59 60 62 63 65 66 
 68 69 70 71 73 74 75 76 77 78 79 82 
 83 
 56 
 2 3 4 7 8 9 12 15 16 17 18 22 
 23 24 25 27 29 30 31 32 33 34 35 37 
 38 39 40 42 43 44 45 46 48 49 50 51 
 52 53 54 55 56 57 58 59 62 66 68 70 
 71 73 74 75 77 79 80 82 
 57 
 1 2 3 4 5 6 7 8 9 12 13 14 
 15 16 17 18 20 21 24 25 26 27 29 30 
 31 33 35 39 41 43 44 45 46 47 49 52 
 54 56 60 62 63 65 67 68 69 70 71 72 
 73 74 76 77 78 79 80 81 84 
 56 
 1 3 4 5 7 8 12 13 14 15 16 17 
 18 19 20 21 24 26 31 35 36 38 39 40 
 41 42 43 44 45 46 47 48 49 51 52 54 
 56 57 59 60 62 64 65 66 67 68 70 71 
 72 73 74 77 78 79 81 84 
 81 
 1 2 3 4 5 6 7 8 9 10 11 12 
 13 14 15 16 17 18 19 20 21 22 23 24 
 25 26 27 28 29 30 31 32 33 34 35 36 
 37 38 39 40 41 42 43 44 46 47 48 49 
 50 51 52 53 54 55 56 57 58 59 60 61 
 62 63 64 65 66 67 68 69 70 72 73 74 
 75 76 78 79 80 81 82 83 84 
 